bench_examples/mzn_fischer_parametric_mutex_k8_n7_cost_less_1_b1.fzn
var bool: x_47:: output_var;
var -2147483646.0..2147483646.0: x_46:: output_var;
var -2147483646.0..2147483646.0: x_45:: output_var;
var -2147483646.0..2147483646.0: x_44:: output_var;
var -2147483646.0..2147483646.0: x_43:: output_var;
var -2147483646.0..2147483646.0: x_42:: output_var;
var -2147483646.0..2147483646.0: x_41:: output_var;
var -2147483646.0..2147483646.0: x_40:: output_var;
var bool: x_106:: output_var;
var bool: x_49:: output_var;
var bool: x_48:: output_var;
var -2147483646.0..2147483646.0: x_138:: output_var;
var bool: x_139:: output_var;
var bool: x_130:: output_var;
var -2147483646.0..2147483646.0: x_131:: output_var;
var -2147483646.0..2147483646.0: x_132:: output_var;
var -2147483646.0..2147483646.0: x_133:: output_var;
var -2147483646.0..2147483646.0: x_134:: output_var;
var -2147483646.0..2147483646.0: x_135:: output_var;
var -2147483646.0..2147483646.0: x_136:: output_var;
var -2147483646.0..2147483646.0: x_137:: output_var;
var -2147483646.0..2147483646.0: x_34:: output_var;
var bool: x_199:: output_var;
var bool: x_72:: output_var;
var bool: x_73:: output_var;
var bool: x_70:: output_var;
var bool: x_71:: output_var;
var bool: x_76:: output_var;
var bool: x_77:: output_var;
var bool: x_74:: output_var;
var bool: x_75:: output_var;
var bool: x_78:: output_var;
var bool: x_79:: output_var;
var -2147483646.0..2147483646.0: x_87:: output_var;
var -2147483646.0..2147483646.0: x_149:: output_var;
var bool: x_148:: output_var;
var bool: x_145:: output_var;
var bool: x_144:: output_var;
var bool: x_147:: output_var;
var bool: x_146:: output_var;
var bool: x_141:: output_var;
var bool: x_140:: output_var;
var bool: x_143:: output_var;
var bool: x_142:: output_var;
var bool: x_38:: output_var;
var -2147483646.0..2147483646.0: x_195:: output_var;
var -2147483646.0..2147483646.0: x_69:: output_var;
var -2147483646.0..2147483646.0: x_68:: output_var;
var -2147483646.0..2147483646.0: x_65:: output_var;
var -2147483646.0..2147483646.0: x_64:: output_var;
var -2147483646.0..2147483646.0: x_67:: output_var;
var -2147483646.0..2147483646.0: x_66:: output_var;
var bool: x_61:: output_var;
var bool: x_60:: output_var;
var -2147483646.0..2147483646.0: x_63:: output_var;
var -2147483646.0..2147483646.0: x_62:: output_var;
var -2147483646.0..2147483646.0: x_158:: output_var;
var -2147483646.0..2147483646.0: x_159:: output_var;
var -2147483646.0..2147483646.0: x_156:: output_var;
var -2147483646.0..2147483646.0: x_157:: output_var;
var -2147483646.0..2147483646.0: x_154:: output_var;
var -2147483646.0..2147483646.0: x_155:: output_var;
var bool: x_152:: output_var;
var bool: x_153:: output_var;
var bool: x_150:: output_var;
var bool: x_151:: output_var;
var -2147483646.0..2147483646.0: x_18:: output_var;
var -2147483646.0..2147483646.0: x_19:: output_var;
var bool: x_10:: output_var;
var bool: x_11:: output_var;
var bool: x_12:: output_var;
var bool: x_13:: output_var;
var bool: x_14:: output_var;
var -2147483646.0..2147483646.0: x_15:: output_var;
var -2147483646.0..2147483646.0: x_16:: output_var;
var -2147483646.0..2147483646.0: x_17:: output_var;
var bool: x_169:: output_var;
var bool: x_168:: output_var;
var bool: x_163:: output_var;
var bool: x_162:: output_var;
var -2147483646.0..2147483646.0: x_161:: output_var;
var -2147483646.0..2147483646.0: x_160:: output_var;
var bool: x_167:: output_var;
var bool: x_166:: output_var;
var bool: x_165:: output_var;
var bool: x_164:: output_var;
var -2147483646.0..2147483646.0: x_202:: output_var;
var bool: x_99:: output_var;
var bool: x_102:: output_var;
var bool: x_174:: output_var;
var bool: x_175:: output_var;
var bool: x_176:: output_var;
var -2147483646.0..2147483646.0: x_177:: output_var;
var bool: x_170:: output_var;
var bool: x_171:: output_var;
var -2147483646.0..2147483646.0: x_172:: output_var;
var bool: x_173:: output_var;
var -2147483646.0..2147483646.0: x_178:: output_var;
var -2147483646.0..2147483646.0: x_179:: output_var;
var -2147483646.0..2147483646.0: x_90:: output_var;
var -2147483646.0..2147483646.0: x_91:: output_var;
var -2147483646.0..2147483646.0: x_92:: output_var;
var bool: x_93:: output_var;
var bool: x_94:: output_var;
var bool: x_95:: output_var;
var bool: x_96:: output_var;
var bool: x_97:: output_var;
var bool: x_98:: output_var;
var -2147483646.0..2147483646.0: x_203:: output_var;
var -2147483646.0..2147483646.0: x_200:: output_var;
var -2147483646.0..2147483646.0: x_201:: output_var;
var -2147483646.0..2147483646.0: x_206:: output_var;
var -2147483646.0..2147483646.0: x_207:: output_var;
var -2147483646.0..2147483646.0: x_204:: output_var;
var -2147483646.0..2147483646.0: x_205:: output_var;
var bool: x_101:: output_var;
var bool: x_7:: output_var;
var -2147483646.0..2147483646.0: x_103:: output_var;
var bool: x_5:: output_var;
var bool: x_105:: output_var;
var bool: x_104:: output_var;
var -2147483646.0..2147483646.0: x_109:: output_var;
var -2147483646.0..2147483646.0: x_108:: output_var;
var bool: x_8:: output_var;
var bool: x_9:: output_var;
var bool: x_83:: output_var;
var bool: x_82:: output_var;
var bool: x_81:: output_var;
var -2147483646.0..2147483646.0: x_80:: output_var;
var bool: x_107:: output_var;
var -2147483646.0..2147483646.0: x_86:: output_var;
var -2147483646.0..2147483646.0: x_85:: output_var;
var bool: x_84:: output_var;
var -2147483646.0..2147483646.0: x_89:: output_var;
var -2147483646.0..2147483646.0: x_88:: output_var;
var bool: x_189:: output_var;
var bool: x_188:: output_var;
var -2147483646.0..2147483646.0: x_181:: output_var;
var -2147483646.0..2147483646.0: x_180:: output_var;
var -2147483646.0..2147483646.0: x_183:: output_var;
var -2147483646.0..2147483646.0: x_182:: output_var;
var bool: x_185:: output_var;
var -2147483646.0..2147483646.0: x_184:: output_var;
var bool: x_187:: output_var;
var bool: x_186:: output_var;
var -2147483646.0..2147483646.0: opt_var_0:: output_var;
var -2147483646.0..2147483646.0: x_112:: output_var;
var -2147483646.0..2147483646.0: x_113:: output_var;
var -2147483646.0..2147483646.0: x_110:: output_var;
var -2147483646.0..2147483646.0: x_111:: output_var;
var bool: x_116:: output_var;
var bool: x_117:: output_var;
var -2147483646.0..2147483646.0: x_114:: output_var;
var -2147483646.0..2147483646.0: x_115:: output_var;
var bool: x_118:: output_var;
var bool: x_119:: output_var;
var bool: x_36:: output_var;
var bool: x_37:: output_var;
var bool: x_198:: output_var;
var bool: x_35:: output_var;
var bool: x_32:: output_var;
var -2147483646.0..2147483646.0: x_33:: output_var;
var bool: x_30:: output_var;
var bool: x_31:: output_var;
var bool: x_192:: output_var;
var bool: x_193:: output_var;
var bool: x_190:: output_var;
var bool: x_191:: output_var;
var bool: x_196:: output_var;
var bool: x_197:: output_var;
var bool: x_194:: output_var;
var -2147483646.0..2147483646.0: x_39:: output_var;
var bool: x_54:: output_var;
var bool: x_55:: output_var;
var bool: x_56:: output_var;
var -2147483646.0..2147483646.0: x_57:: output_var;
var bool: x_50:: output_var;
var bool: x_51:: output_var;
var bool: x_52:: output_var;
var bool: x_53:: output_var;
var bool: x_58:: output_var;
var bool: x_59:: output_var;
var bool: x_129:: output_var;
var bool: x_128:: output_var;
var bool: x_127:: output_var;
var -2147483646.0..2147483646.0: x_126:: output_var;
var bool: x_125:: output_var;
var bool: x_124:: output_var;
var bool: x_123:: output_var;
var bool: x_122:: output_var;
var bool: x_121:: output_var;
var bool: x_120:: output_var;
var bool: x_6:: output_var;
var bool: x_100:: output_var;
var -2147483646.0..2147483646.0: x_21:: output_var;
var -2147483646.0..2147483646.0: x_20:: output_var;
var bool: x_23:: output_var;
var -2147483646.0..2147483646.0: x_22:: output_var;
var bool: x_25:: output_var;
var bool: x_24:: output_var;
var bool: x_27:: output_var;
var bool: x_26:: output_var;
var bool: x_29:: output_var;
var bool: x_28:: output_var;
var 0.0..0.0: x_0:: output_var = 0.0;
var bool: X_INTRODUCED_4_ ::var_is_introduced  = true;
var bool: X_INTRODUCED_5_ ::var_is_introduced  = true;
var bool: X_INTRODUCED_6_ ::var_is_introduced  = true;
var bool: X_INTRODUCED_7_ ::var_is_introduced  = true;
var bool: X_INTRODUCED_8_ ::var_is_introduced  = true;
var bool: X_INTRODUCED_9_ ::var_is_introduced  = true;
var bool: X_INTRODUCED_10_ ::var_is_introduced  = true;
var bool: X_INTRODUCED_11_ ::var_is_introduced  = true;
var bool: X_INTRODUCED_12_ ::var_is_introduced  = true;
var bool: X_INTRODUCED_13_ ::var_is_introduced  = true;
var bool: X_INTRODUCED_14_ ::var_is_introduced  = true;
var bool: X_INTRODUCED_15_ ::var_is_introduced  = true;
var bool: X_INTRODUCED_17_ ::var_is_introduced  = true;
var bool: X_INTRODUCED_18_ ::var_is_introduced  = true;
var bool: X_INTRODUCED_19_ ::var_is_introduced  = true;
var bool: X_INTRODUCED_20_ ::var_is_introduced  = true;
var bool: X_INTRODUCED_21_ ::var_is_introduced  = true;
var bool: X_INTRODUCED_22_ ::var_is_introduced  = true;
var bool: X_INTRODUCED_23_ ::var_is_introduced  = true;
var bool: X_INTRODUCED_24_ ::var_is_introduced  = true;
var bool: X_INTRODUCED_25_ ::var_is_introduced  = true;
var bool: X_INTRODUCED_26_ ::var_is_introduced  = true;
var bool: X_INTRODUCED_27_ ::var_is_introduced  = true;
var bool: X_INTRODUCED_28_ ::var_is_introduced  = true;
var bool: X_INTRODUCED_29_ ::var_is_introduced  = true;
var bool: X_INTRODUCED_30_ ::var_is_introduced  = true;
var bool: X_INTRODUCED_31_ ::var_is_introduced  = true;
var bool: X_INTRODUCED_32_ ::var_is_introduced  = true;
var bool: X_INTRODUCED_33_ ::var_is_introduced  = true;
var bool: X_INTRODUCED_34_ ::var_is_introduced  = true;
var bool: X_INTRODUCED_35_ ::var_is_introduced  = true;
var bool: X_INTRODUCED_36_ ::var_is_introduced  = true;
var bool: X_INTRODUCED_37_ ::var_is_introduced  = true;
var bool: X_INTRODUCED_38_ ::var_is_introduced  = true;
var bool: X_INTRODUCED_39_ ::var_is_introduced  = true;
var bool: X_INTRODUCED_40_ ::var_is_introduced  = true;
var bool: X_INTRODUCED_41_ ::var_is_introduced  = true;
var bool: X_INTRODUCED_42_ ::var_is_introduced  = true;
var bool: X_INTRODUCED_43_ ::var_is_introduced  = true;
var bool: X_INTRODUCED_44_ ::var_is_introduced  = true;
var bool: X_INTRODUCED_45_ ::var_is_introduced  = true;
var bool: X_INTRODUCED_46_ ::var_is_introduced  = true;
var bool: X_INTRODUCED_47_ ::var_is_introduced  = true;
var bool: X_INTRODUCED_48_ ::var_is_introduced  = true;
var bool: X_INTRODUCED_49_ ::var_is_introduced  = true;
var bool: X_INTRODUCED_50_ ::var_is_introduced  = true;
var bool: X_INTRODUCED_51_ ::var_is_introduced  = true;
var bool: X_INTRODUCED_52_ ::var_is_introduced  = true;
var bool: X_INTRODUCED_53_ ::var_is_introduced  = true;
var bool: X_INTRODUCED_55_ ::var_is_introduced  = true;
var bool: X_INTRODUCED_56_ ::var_is_introduced  = true;
var bool: X_INTRODUCED_57_ ::var_is_introduced  = true;
var bool: X_INTRODUCED_58_ ::var_is_introduced  = true;
var bool: X_INTRODUCED_59_ ::var_is_introduced  = true;
var bool: X_INTRODUCED_60_ ::var_is_introduced  = true;
var bool: X_INTRODUCED_61_ ::var_is_introduced  = true;
var bool: X_INTRODUCED_62_ ::var_is_introduced  = true;
var bool: X_INTRODUCED_63_ ::var_is_introduced  = true;
var bool: X_INTRODUCED_64_ ::var_is_introduced  = true;
var bool: X_INTRODUCED_65_ ::var_is_introduced  = true;
var bool: X_INTRODUCED_66_ ::var_is_introduced  = true;
var bool: X_INTRODUCED_67_ ::var_is_introduced  = true;
var bool: X_INTRODUCED_68_ ::var_is_introduced  = true;
var bool: X_INTRODUCED_69_ ::var_is_introduced  = true;
var bool: X_INTRODUCED_70_ ::var_is_introduced  = true;
var bool: X_INTRODUCED_71_ ::var_is_introduced  = true;
var bool: X_INTRODUCED_72_ ::var_is_introduced  = true;
var bool: X_INTRODUCED_73_ ::var_is_introduced  = true;
var bool: X_INTRODUCED_74_ ::var_is_introduced  = true;
var bool: X_INTRODUCED_75_ ::var_is_introduced  = true;
var bool: X_INTRODUCED_76_ ::var_is_introduced  = true;
var bool: X_INTRODUCED_77_ ::var_is_introduced  = true;
var bool: X_INTRODUCED_78_ ::var_is_introduced  = true;
var bool: X_INTRODUCED_79_ ::var_is_introduced  = true;
var bool: X_INTRODUCED_80_ ::var_is_introduced  = true;
var bool: X_INTRODUCED_81_ ::var_is_introduced  = true;
var bool: X_INTRODUCED_82_ ::var_is_introduced  = true;
var bool: X_INTRODUCED_83_ ::var_is_introduced  = true;
var bool: X_INTRODUCED_84_ ::var_is_introduced  = true;
var bool: X_INTRODUCED_85_ ::var_is_introduced  = true;
var bool: X_INTRODUCED_86_ ::var_is_introduced  = true;
var bool: X_INTRODUCED_87_ ::var_is_introduced  = true;
var bool: X_INTRODUCED_88_ ::var_is_introduced  = true;
var bool: X_INTRODUCED_89_ ::var_is_introduced  = true;
var bool: X_INTRODUCED_90_ ::var_is_introduced  = true;
var bool: X_INTRODUCED_91_ ::var_is_introduced  = true;
var bool: X_INTRODUCED_92_ ::var_is_introduced  = true;
var bool: X_INTRODUCED_93_ ::var_is_introduced  = true;
var bool: X_INTRODUCED_94_ ::var_is_introduced  = true;
var bool: X_INTRODUCED_95_ ::var_is_introduced  = true;
var bool: X_INTRODUCED_96_ ::var_is_introduced  = true;
constraint float_le(0.0,x_0);
constraint float_le(0.0,x_15);
constraint float_le(0.0,x_16);
constraint float_le(0.0,x_17);
constraint float_le(0.0,x_18);
constraint float_le(0.0,x_19);
constraint float_le(0.0,x_20);
constraint float_le(0.0,x_21);
constraint float_le(0.0,x_22);
constraint float_le(x_22,7.0);
constraint float_lt(0.0,x_33);
constraint float_le(0.0,x_34);
constraint float_le(x_34,7.0);
constraint float_le(0.0,x_39);
constraint float_le(0.0,x_40);
constraint float_le(0.0,x_41);
constraint float_le(0.0,x_42);
constraint float_le(0.0,x_43);
constraint float_le(0.0,x_44);
constraint float_le(0.0,x_45);
constraint float_le(0.0,x_46);
constraint float_le(0.0,x_57);
constraint float_le(x_57,7.0);
constraint float_le(0.0,x_62);
constraint float_le(0.0,x_63);
constraint float_le(0.0,x_64);
constraint float_le(0.0,x_65);
constraint float_le(0.0,x_66);
constraint float_le(0.0,x_67);
constraint float_le(0.0,x_68);
constraint float_le(0.0,x_69);
constraint float_le(0.0,x_80);
constraint float_le(x_80,7.0);
constraint float_le(0.0,x_85);
constraint float_le(0.0,x_86);
constraint float_le(0.0,x_87);
constraint float_le(0.0,x_88);
constraint float_le(0.0,x_89);
constraint float_le(0.0,x_90);
constraint float_le(0.0,x_91);
constraint float_le(0.0,x_92);
constraint float_le(0.0,x_103);
constraint float_le(x_103,7.0);
constraint float_le(0.0,x_108);
constraint float_le(0.0,x_109);
constraint float_le(0.0,x_110);
constraint float_le(0.0,x_111);
constraint float_le(0.0,x_112);
constraint float_le(0.0,x_113);
constraint float_le(0.0,x_114);
constraint float_le(0.0,x_115);
constraint float_le(0.0,x_126);
constraint float_le(x_126,7.0);
constraint float_le(0.0,x_131);
constraint float_le(0.0,x_132);
constraint float_le(0.0,x_133);
constraint float_le(0.0,x_134);
constraint float_le(0.0,x_135);
constraint float_le(0.0,x_136);
constraint float_le(0.0,x_137);
constraint float_le(0.0,x_138);
constraint float_le(0.0,x_149);
constraint float_le(x_149,7.0);
constraint float_le(0.0,x_154);
constraint float_le(0.0,x_155);
constraint float_le(0.0,x_156);
constraint float_le(0.0,x_157);
constraint float_le(0.0,x_158);
constraint float_le(0.0,x_159);
constraint float_le(0.0,x_160);
constraint float_le(0.0,x_161);
constraint float_le(0.0,x_172);
constraint float_le(x_172,7.0);
constraint float_le(0.0,x_177);
constraint float_le(0.0,x_178);
constraint float_le(0.0,x_179);
constraint float_le(0.0,x_180);
constraint float_le(0.0,x_181);
constraint float_le(0.0,x_182);
constraint float_le(0.0,x_183);
constraint float_le(0.0,x_184);
constraint float_le(0.0,x_195);
constraint float_le(x_195,7.0);
constraint float_le(0.0,x_200);
constraint float_le(0.0,x_201);
constraint float_le(0.0,x_202);
constraint float_le(0.0,x_203);
constraint float_le(0.0,x_204);
constraint float_le(0.0,x_205);
constraint float_le(0.0,x_206);
constraint float_le(0.0,x_207);
solve  minimize opt_var_0;
