bench_examples/mzn_fischer_parametric_mutex_k8_n7_cost_less_1_b1.ozn
output ["x_47 = ",show(x_47),";\n","x_46 = ",show(x_46),";\n","x_45 = ",show(x_45),";\n","x_44 = ",show(x_44),";\n","x_43 = ",show(x_43),";\n","x_42 = ",show(x_42),";\n","x_41 = ",show(x_41),";\n","x_40 = ",show(x_40),";\n","x_106 = ",show(x_106),";\n","x_49 = ",show(x_49),";\n","x_48 = ",show(x_48),";\n","x_138 = ",show(x_138),";\n","x_139 = ",show(x_139),";\n","x_130 = ",show(x_130),";\n","x_131 = ",show(x_131),";\n","x_132 = ",show(x_132),";\n","x_133 = ",show(x_133),";\n","x_134 = ",show(x_134),";\n","x_135 = ",show(x_135),";\n","x_136 = ",show(x_136),";\n","x_137 = ",show(x_137),";\n","x_34 = ",show(x_34),";\n","x_199 = ",show(x_199),";\n","x_72 = ",show(x_72),";\n","x_73 = ",show(x_73),";\n","x_70 = ",show(x_70),";\n","x_71 = ",show(x_71),";\n","x_76 = ",show(x_76),";\n","x_77 = ",show(x_77),";\n","x_74 = ",show(x_74),";\n","x_75 = ",show(x_75),";\n","x_78 = ",show(x_78),";\n","x_79 = ",show(x_79),";\n","x_87 = ",show(x_87),";\n","x_149 = ",show(x_149),";\n","x_148 = ",show(x_148),";\n","x_145 = ",show(x_145),";\n","x_144 = ",show(x_144),";\n","x_147 = ",show(x_147),";\n","x_146 = ",show(x_146),";\n","x_141 = ",show(x_141),";\n","x_140 = ",show(x_140),";\n","x_143 = ",show(x_143),";\n","x_142 = ",show(x_142),";\n","x_38 = ",show(x_38),";\n","x_195 = ",show(x_195),";\n","x_69 = ",show(x_69),";\n","x_68 = ",show(x_68),";\n","x_65 = ",show(x_65),";\n","x_64 = ",show(x_64),";\n","x_67 = ",show(x_67),";\n","x_66 = ",show(x_66),";\n","x_61 = ",show(x_61),";\n","x_60 = ",show(x_60),";\n","x_63 = ",show(x_63),";\n","x_62 = ",show(x_62),";\n","cost = ",show(cost),";\n","x_158 = ",show(x_158),";\n","x_159 = ",show(x_159),";\n","x_156 = ",show(x_156),";\n","x_157 = ",show(x_157),";\n","x_154 = ",show(x_154),";\n","x_155 = ",show(x_155),";\n","x_152 = ",show(x_152),";\n","x_153 = ",show(x_153),";\n","x_150 = ",show(x_150),";\n","x_151 = ",show(x_151),";\n","x_18 = ",show(x_18),";\n","x_19 = ",show(x_19),";\n","x_10 = ",show(x_10),";\n","x_11 = ",show(x_11),";\n","x_12 = ",show(x_12),";\n","x_13 = ",show(x_13),";\n","x_14 = ",show(x_14),";\n","x_15 = ",show(x_15),";\n","x_16 = ",show(x_16),";\n","x_17 = ",show(x_17),";\n","x_169 = ",show(x_169),";\n","x_168 = ",show(x_168),";\n","x_163 = ",show(x_163),";\n","x_162 = ",show(x_162),";\n","x_161 = ",show(x_161),";\n","x_160 = ",show(x_160),";\n","x_167 = ",show(x_167),";\n","x_166 = ",show(x_166),";\n","x_165 = ",show(x_165),";\n","x_164 = ",show(x_164),";\n","x_202 = ",show(x_202),";\n","x_99 = ",show(x_99),";\n","x_102 = ",show(x_102),";\n","x_174 = ",show(x_174),";\n","x_175 = ",show(x_175),";\n","x_176 = ",show(x_176),";\n","x_177 = ",show(x_177),";\n","x_170 = ",show(x_170),";\n","x_171 = ",show(x_171),";\n","x_172 = ",show(x_172),";\n","x_173 = ",show(x_173),";\n","x_178 = ",show(x_178),";\n","x_179 = ",show(x_179),";\n","x_90 = ",show(x_90),";\n","x_91 = ",show(x_91),";\n","x_92 = ",show(x_92),";\n","x_93 = ",show(x_93),";\n","x_94 = ",show(x_94),";\n","x_95 = ",show(x_95),";\n","x_96 = ",show(x_96),";\n","x_97 = ",show(x_97),";\n","x_98 = ",show(x_98),";\n","x_203 = ",show(x_203),";\n","x_200 = ",show(x_200),";\n","x_201 = ",show(x_201),";\n","x_206 = ",show(x_206),";\n","x_207 = ",show(x_207),";\n","x_204 = ",show(x_204),";\n","x_205 = ",show(x_205),";\n","x_101 = ",show(x_101),";\n","x_7 = ",show(x_7),";\n","x_103 = ",show(x_103),";\n","x_5 = ",show(x_5),";\n","x_105 = ",show(x_105),";\n","x_104 = ",show(x_104),";\n","x_0 = ",show(x_0),";\n","x_1 = ",show(x_1),";\n","x_109 = ",show(x_109),";\n","x_108 = ",show(x_108),";\n","x_8 = ",show(x_8),";\n","x_9 = ",show(x_9),";\n","x_83 = ",show(x_83),";\n","x_82 = ",show(x_82),";\n","x_81 = ",show(x_81),";\n","x_80 = ",show(x_80),";\n","x_107 = ",show(x_107),";\n","x_86 = ",show(x_86),";\n","x_85 = ",show(x_85),";\n","x_84 = ",show(x_84),";\n","x_89 = ",show(x_89),";\n","x_88 = ",show(x_88),";\n","x_189 = ",show(x_189),";\n","x_188 = ",show(x_188),";\n","x_181 = ",show(x_181),";\n","x_180 = ",show(x_180),";\n","x_183 = ",show(x_183),";\n","x_182 = ",show(x_182),";\n","x_185 = ",show(x_185),";\n","x_184 = ",show(x_184),";\n","x_187 = ",show(x_187),";\n","x_186 = ",show(x_186),";\n","opt_var_0 = ",show(opt_var_0),";\n","x_112 = ",show(x_112),";\n","x_113 = ",show(x_113),";\n","x_110 = ",show(x_110),";\n","x_111 = ",show(x_111),";\n","x_116 = ",show(x_116),";\n","x_117 = ",show(x_117),";\n","x_114 = ",show(x_114),";\n","x_115 = ",show(x_115),";\n","x_118 = ",show(x_118),";\n","x_119 = ",show(x_119),";\n","x_36 = ",show(x_36),";\n","x_37 = ",show(x_37),";\n","x_198 = ",show(x_198),";\n","x_35 = ",show(x_35),";\n","x_32 = ",show(x_32),";\n","x_33 = ",show(x_33),";\n","x_30 = ",show(x_30),";\n","x_31 = ",show(x_31),";\n","x_192 = ",show(x_192),";\n","x_193 = ",show(x_193),";\n","x_190 = ",show(x_190),";\n","x_191 = ",show(x_191),";\n","x_196 = ",show(x_196),";\n","x_197 = ",show(x_197),";\n","x_194 = ",show(x_194),";\n","x_39 = ",show(x_39),";\n","x_54 = ",show(x_54),";\n","x_55 = ",show(x_55),";\n","x_56 = ",show(x_56),";\n","x_57 = ",show(x_57),";\n","x_50 = ",show(x_50),";\n","x_51 = ",show(x_51),";\n","x_52 = ",show(x_52),";\n","x_53 = ",show(x_53),";\n","x_2 = ",show(x_2),";\n","x_58 = ",show(x_58),";\n","x_59 = ",show(x_59),";\n","x_129 = ",show(x_129),";\n","x_128 = ",show(x_128),";\n","x_127 = ",show(x_127),";\n","x_126 = ",show(x_126),";\n","x_125 = ",show(x_125),";\n","x_124 = ",show(x_124),";\n","x_123 = ",show(x_123),";\n","x_122 = ",show(x_122),";\n","x_121 = ",show(x_121),";\n","x_120 = ",show(x_120),";\n","x_6 = ",show(x_6),";\n","x_100 = ",show(x_100),";\n","x_4 = ",show(x_4),";\n","x_21 = ",show(x_21),";\n","x_20 = ",show(x_20),";\n","x_23 = ",show(x_23),";\n","x_22 = ",show(x_22),";\n","x_25 = ",show(x_25),";\n","x_24 = ",show(x_24),";\n","x_27 = ",show(x_27),";\n","x_26 = ",show(x_26),";\n","x_29 = ",show(x_29),";\n","x_28 = ",show(x_28),";\n","x_3 = ",show(x_3),";\n","c1 = ",show(c1),";\n","c2 = ",show(c2),";\n","c3 = ",show(c3),";\n","c4 = ",show(c4),";\n","c5 = ",show(c5),";\n"];
bool: x_47;
float: x_46;
float: x_45;
float: x_44;
float: x_43;
float: x_42;
float: x_41;
float: x_40;
bool: x_106;
bool: x_49;
bool: x_48;
float: x_138;
bool: x_139;
bool: x_130;
float: x_131;
float: x_132;
float: x_133;
float: x_134;
float: x_135;
float: x_136;
float: x_137;
float: x_34;
bool: x_199;
bool: x_72;
bool: x_73;
bool: x_70;
bool: x_71;
bool: x_76;
bool: x_77;
bool: x_74;
bool: x_75;
bool: x_78;
bool: x_79;
float: x_87;
float: x_149;
bool: x_148;
bool: x_145;
bool: x_144;
bool: x_147;
bool: x_146;
bool: x_141;
bool: x_140;
bool: x_143;
bool: x_142;
bool: x_38;
float: x_195;
float: x_69;
float: x_68;
float: x_65;
float: x_64;
float: x_67;
float: x_66;
bool: x_61;
bool: x_60;
float: x_63;
float: x_62;
float: cost = opt_var_0;
float: x_158;
float: x_159;
float: x_156;
float: x_157;
float: x_154;
float: x_155;
bool: x_152;
bool: x_153;
bool: x_150;
bool: x_151;
float: x_18;
float: x_19;
bool: x_10;
bool: x_11;
bool: x_12;
bool: x_13;
bool: x_14;
float: x_15;
float: x_16;
float: x_17;
bool: x_169;
bool: x_168;
bool: x_163;
bool: x_162;
float: x_161;
float: x_160;
bool: x_167;
bool: x_166;
bool: x_165;
bool: x_164;
float: x_202;
bool: x_99;
bool: x_102;
bool: x_174;
bool: x_175;
bool: x_176;
float: x_177;
bool: x_170;
bool: x_171;
float: x_172;
bool: x_173;
float: x_178;
float: x_179;
float: x_90;
float: x_91;
float: x_92;
bool: x_93;
bool: x_94;
bool: x_95;
bool: x_96;
bool: x_97;
bool: x_98;
float: x_203;
float: x_200;
float: x_201;
float: x_206;
float: x_207;
float: x_204;
float: x_205;
bool: x_101;
bool: x_7;
float: x_103;
bool: x_5;
bool: x_105;
bool: x_104;
float: x_0;
bool: x_1 = false;
float: x_109;
float: x_108;
bool: x_8;
bool: x_9;
bool: x_83;
bool: x_82;
bool: x_81;
float: x_80;
bool: x_107;
float: x_86;
float: x_85;
bool: x_84;
float: x_89;
float: x_88;
bool: x_189;
bool: x_188;
float: x_181;
float: x_180;
float: x_183;
float: x_182;
bool: x_185;
float: x_184;
bool: x_187;
bool: x_186;
float: opt_var_0;
float: x_112;
float: x_113;
float: x_110;
float: x_111;
bool: x_116;
bool: x_117;
float: x_114;
float: x_115;
bool: x_118;
bool: x_119;
bool: x_36;
bool: x_37;
bool: x_198;
bool: x_35;
bool: x_32;
float: x_33;
bool: x_30;
bool: x_31;
bool: x_192;
bool: x_193;
bool: x_190;
bool: x_191;
bool: x_196;
bool: x_197;
bool: x_194;
float: x_39;
bool: x_54;
bool: x_55;
bool: x_56;
float: x_57;
bool: x_50;
bool: x_51;
bool: x_52;
bool: x_53;
bool: x_2 = false;
bool: x_58;
bool: x_59;
bool: x_129;
bool: x_128;
bool: x_127;
float: x_126;
bool: x_125;
bool: x_124;
bool: x_123;
bool: x_122;
bool: x_121;
bool: x_120;
bool: x_6;
bool: x_100;
bool: x_4 = false;
float: x_21;
float: x_20;
bool: x_23;
float: x_22;
bool: x_25;
bool: x_24;
bool: x_27;
bool: x_26;
bool: x_29;
bool: x_28;
bool: x_3 = false;
bool: c1 = true;
bool: c2 = true;
bool: c3 = true;
bool: c4 = true;
bool: c5 = true;
